CKP/CKP_n50_Instance_3.lp
\ENCODING=ISO-8859-1
\Problem name: CKP

Maximize
 obj: x1 + x2 + x3 + x4 + x5 + x6 + x7 + x8 + x9 + x10 + x11 + x12 + x13 + x14
      + x15 + x16 + x17 + x18 + x19 + x20 + x21 + x22 + x23 + x24 + x25 + x26
      + x27 + x28 + x29 + x30 + x31 + x32 + x33 + x34 + x35 + x36 + x37 + x38
      + x39 + x40 + x41 + x42 + x43 + x44 + x45 + x46 + x47 + x48 + x49 + x50
Subject To
 c1: 14456 x1 + 14457 x2 + 14458 x3 + 14492 x4 + 14493 x5 + 14494 x6 + 14528 x7
     + 14529 x8 + 14530 x9 + 15104 x10 + 15105 x11 + 15106 x12 + 15140 x13
     + 15141 x14 + 15142 x15 + 15176 x16 + 15177 x17 + 15178 x18 + 15752 x19
     + 15753 x20 + 15754 x21 + 15788 x22 + 15789 x23 + 14456 x24 + 14457 x25
     + 14458 x26 + 14493 x27 + 14494 x28 + 14528 x29 + 15104 x30 + 15105 x31
     + 15140 x32 + 15141 x33 + 15142 x34 + 15176 x35 + 15178 x36 + 15753 x37
     + 15754 x38 + 15788 x39 + 15789 x40 + 15790 x41 + 15825 x42 + 15826 x43
     + 28229 x44 + 28230 x45 + 28231 x46 + 28267 x47 + 28301 x48 + 28302 x49
     + 28877 x50 >= 416513
 c2: 14456 x1 + 14457 x2 + 14458 x3 + 14492 x4 + 14493 x5 + 14494 x6 + 14528 x7
     + 14529 x8 + 14530 x9 + 15104 x10 + 15105 x11 + 15106 x12 + 15140 x13
     + 15141 x14 + 15142 x15 + 15176 x16 + 15177 x17 + 15178 x18 + 15752 x19
     + 15753 x20 + 15754 x21 + 15788 x22 + 15789 x23 + 14456 x24 + 14457 x25
     + 14458 x26 + 14493 x27 + 14494 x28 + 14528 x29 + 15104 x30 + 15105 x31
     + 15140 x32 + 15141 x33 + 15142 x34 + 15176 x35 + 15178 x36 + 15753 x37
     + 15754 x38 + 15788 x39 + 15789 x40 + 15790 x41 + 15825 x42 + 15826 x43
     + 28229 x44 + 28230 x45 + 28231 x46 + 28267 x47 + 28301 x48 + 28302 x49
     + 28877 x50 <= 416514
Bounds
 0 <= x1 <= 1
 0 <= x2 <= 1
 0 <= x3 <= 1
 0 <= x4 <= 1
 0 <= x5 <= 1
 0 <= x6 <= 1
 0 <= x7 <= 1
 0 <= x8 <= 1
 0 <= x9 <= 1
 0 <= x10 <= 1
 0 <= x11 <= 1
 0 <= x12 <= 1
 0 <= x13 <= 1
 0 <= x14 <= 1
 0 <= x15 <= 1
 0 <= x16 <= 1
 0 <= x17 <= 1
 0 <= x18 <= 1
 0 <= x19 <= 1
 0 <= x20 <= 1
 0 <= x21 <= 1
 0 <= x22 <= 1
 0 <= x23 <= 1
 0 <= x24 <= 1
 0 <= x25 <= 1
 0 <= x26 <= 1
 0 <= x27 <= 1
 0 <= x28 <= 1
 0 <= x29 <= 1
 0 <= x30 <= 1
 0 <= x31 <= 1
 0 <= x32 <= 1
 0 <= x33 <= 1
 0 <= x34 <= 1
 0 <= x35 <= 1
 0 <= x36 <= 1
 0 <= x37 <= 1
 0 <= x38 <= 1
 0 <= x39 <= 1
 0 <= x40 <= 1
 0 <= x41 <= 1
 0 <= x42 <= 1
 0 <= x43 <= 1
 0 <= x44 <= 1
 0 <= x45 <= 1
 0 <= x46 <= 1
 0 <= x47 <= 1
 0 <= x48 <= 1
 0 <= x49 <= 1
 0 <= x50 <= 1
Binaries
 x1  x2  x3  x4  x5  x6  x7  x8  x9  x10  x11  x12  x13  x14  x15  x16  x17 
 x18  x19  x20  x21  x22  x23  x24  x25  x26  x27  x28  x29  x30  x31  x32 
 x33  x34  x35  x36  x37  x38  x39  x40  x41  x42  x43  x44  x45  x46  x47 
 x48  x49  x50 
End
