CKP/CKP_n50_Instance_3.lp.txt
\ENCODING=ISO-8859-1
\Problem name: CKP

Maximize
 obj: x1 + x2 + x3 + x4 + x5 + x6 + x7 + x8 + x9 + x10 + x11 + x12 + x13 + x14
      + x15 + x16 + x17 + x18 + x19 + x20 + x21 + x22 + x23 + x24 + x25 + x26
      + x27 + x28 + x29 + x30 + x31 + x32 + x33 + x34 + x35 + x36 + x37 + x38
      + x39 + x40 + x41 + x42 + x43 + x44 + x45 + x46 + x47 + x48 + x49 + x50
Subject To
 c1: 13972 x1 + 13973 x2 + 13974 x3 + 14007 x4 + 14008 x5 + 14009 x6 + 14042 x7
     + 14043 x8 + 14044 x9 + 14628 x10 + 14629 x11 + 14630 x12 + 14663 x13
     + 14664 x14 + 14665 x15 + 14698 x16 + 14699 x17 + 14700 x18 + 15284 x19
     + 15285 x20 + 15286 x21 + 15319 x22 + 15320 x23 + 13972 x24 + 13974 x25
     + 14008 x26 + 14009 x27 + 14042 x28 + 14043 x29 + 14628 x30 + 14629 x31
     + 14630 x32 + 14663 x33 + 14664 x34 + 14665 x35 + 14698 x36 + 14699 x37
     + 15285 x38 + 15286 x39 + 15319 x40 + 15320 x41 + 15321 x42 + 15355 x43
     + 15356 x44 + 27254 x45 + 27255 x46 + 27289 x47 + 27291 x48 + 27324 x49
     + 27326 x50 >= 374476
 c2: 13972 x1 + 13973 x2 + 13974 x3 + 14007 x4 + 14008 x5 + 14009 x6 + 14042 x7
     + 14043 x8 + 14044 x9 + 14628 x10 + 14629 x11 + 14630 x12 + 14663 x13
     + 14664 x14 + 14665 x15 + 14698 x16 + 14699 x17 + 14700 x18 + 15284 x19
     + 15285 x20 + 15286 x21 + 15319 x22 + 15320 x23 + 13972 x24 + 13974 x25
     + 14008 x26 + 14009 x27 + 14042 x28 + 14043 x29 + 14628 x30 + 14629 x31
     + 14630 x32 + 14663 x33 + 14664 x34 + 14665 x35 + 14698 x36 + 14699 x37
     + 15285 x38 + 15286 x39 + 15319 x40 + 15320 x41 + 15321 x42 + 15355 x43
     + 15356 x44 + 27254 x45 + 27255 x46 + 27289 x47 + 27291 x48 + 27324 x49
     + 27326 x50 <= 374476
Bounds
 0 <= x1 <= 1
 0 <= x2 <= 1
 0 <= x3 <= 1
 0 <= x4 <= 1
 0 <= x5 <= 1
 0 <= x6 <= 1
 0 <= x7 <= 1
 0 <= x8 <= 1
 0 <= x9 <= 1
 0 <= x10 <= 1
 0 <= x11 <= 1
 0 <= x12 <= 1
 0 <= x13 <= 1
 0 <= x14 <= 1
 0 <= x15 <= 1
 0 <= x16 <= 1
 0 <= x17 <= 1
 0 <= x18 <= 1
 0 <= x19 <= 1
 0 <= x20 <= 1
 0 <= x21 <= 1
 0 <= x22 <= 1
 0 <= x23 <= 1
 0 <= x24 <= 1
 0 <= x25 <= 1
 0 <= x26 <= 1
 0 <= x27 <= 1
 0 <= x28 <= 1
 0 <= x29 <= 1
 0 <= x30 <= 1
 0 <= x31 <= 1
 0 <= x32 <= 1
 0 <= x33 <= 1
 0 <= x34 <= 1
 0 <= x35 <= 1
 0 <= x36 <= 1
 0 <= x37 <= 1
 0 <= x38 <= 1
 0 <= x39 <= 1
 0 <= x40 <= 1
 0 <= x41 <= 1
 0 <= x42 <= 1
 0 <= x43 <= 1
 0 <= x44 <= 1
 0 <= x45 <= 1
 0 <= x46 <= 1
 0 <= x47 <= 1
 0 <= x48 <= 1
 0 <= x49 <= 1
 0 <= x50 <= 1
Binaries
 x1  x2  x3  x4  x5  x6  x7  x8  x9  x10  x11  x12  x13  x14  x15  x16  x17 
 x18  x19  x20  x21  x22  x23  x24  x25  x26  x27  x28  x29  x30  x31  x32 
 x33  x34  x35  x36  x37  x38  x39  x40  x41  x42  x43  x44  x45  x46  x47 
 x48  x49  x50 
End
